     Program PWSCF v.6.8 starts on 23Jun2022 at 13: 6: 4

     R & G space division:  proc/nbgrp/npool/nimage =       3

     Reading input from ./Si.vc-relax.in

     Current dimensions of program PWSCF are:
     Max number of different atomic species (ntypx) = 10
     Max number of k-points (npk) =  40000
     Max angular momentum in pseudopotentials (lmaxx) =  4
     Message from routine cell_base_init:
     DEPRECATED: use true lattice parameter, not A to a.u. conversion factor

     IMPORTANT: XC functional enforced from input :
     Exchange-correlation= PBE
                           (   1   4   3   4   0   0   0)
     Any further DFT definition will be discarded
     Please, verify this is what you really want

     Found symmetry operation: I + (  0.0000  0.5000 -0.5000)
     This is a supercell, fractional translations are disabled
     Message from routine setup:
     using ibrav=0 with symmetry is DISCOURAGED, use correct ibrav instead

     Subspace diagonalization in iterative solution of the eigenvalue problem:
     a serial algorithm will be used

     Using Slab Decomposition

     bravais-lattice index     =            0
     lattice parameter (alat)  =       1.0000  a.u.
     unit-cell volume          =    1103.7183 (a.u.)^3
     number of atoms/cell      =            8
     number of atomic types    =            1
     number of electrons       =        32.00
     number of Kohn-Sham states=           16
     kinetic-energy cutoff     =     100.0000  Ry
     charge density cutoff     =     400.0000  Ry
     scf convergence threshold =      1.0E-08
     mixing beta               =       0.7000
     number of iterations used =            8  plain     mixing
     energy convergence thresh.=      1.0E-06
     force convergence thresh. =      1.0E-06
     press convergence thresh. =      5.0E-01
     Exchange-correlation= PBE
                           (   1   4   3   4   0   0   0)
     nstep                     =           50

     celldm(1)=   1.000000  celldm(2)=   0.000000  celldm(3)=   0.000000
     celldm(4)=   0.000000  celldm(5)=   0.000000  celldm(6)=   0.000000

     crystal axes: (cart. coord. in units of alat)
               a(1) = (  10.334419   0.000000   0.000000 )
               a(2) = (   0.000000  10.334419   0.000000 )
               a(3) = (   0.000000   0.000000  10.334419 )

     reciprocal axes: (cart. coord. in units 2 pi/alat)
               b(1) = (  0.096764  0.000000  0.000000 )
               b(2) = (  0.000000  0.096764  0.000000 )
               b(3) = (  0.000000  0.000000  0.096764 )

     PseudoPot. # 1 for Si read from file:
     ./Si.pbe.upf
     MD5 check sum: 7f029a58b69e3aa87b46a36c608bf45e
     Pseudo is Norm-conserving, Zval =  4.0
     Generated using ONCVPSP code by D. R. Hamann
     Using radial grid of  602 points,  4 beta functions with:
                l(1) =   0
                l(2) =   0
                l(3) =   1
                l(4) =   1

     atomic species   valence    mass     pseudopotential
        Si             4.00    28.08550     Si( 1.00)

     24 Sym. Ops. (no inversion) found

   Cartesian axes

     site n.     atom                  positions (alat units)
         1           Si  tau(   1) = (   2.5836048   7.7508145   2.5836048  )
         2           Si  tau(   2) = (   0.0000000   0.0000000   5.1672097  )
         3           Si  tau(   3) = (   2.5836048   2.5836048   7.7508145  )
         4           Si  tau(   4) = (   0.0000000   5.1672097   0.0000000  )
         5           Si  tau(   5) = (   7.7508145   7.7508145   7.7508145  )
         6           Si  tau(   6) = (   5.1672097   0.0000000   0.0000000  )
         7           Si  tau(   7) = (   7.7508145   2.5836048   2.5836048  )
         8           Si  tau(   8) = (   5.1672097   5.1672097   5.1672097  )

     number of k points=    20
                       cart. coord. in units 2pi/alat
        k(    1) = (   0.0000000   0.0000000   0.0000000), wk =   0.0092593
        k(    2) = (   0.0000000   0.0000000   0.0161273), wk =   0.0555556
        k(    3) = (   0.0000000   0.0000000   0.0322547), wk =   0.0555556
        k(    4) = (   0.0000000   0.0000000  -0.0483820), wk =   0.0277778
        k(    5) = (   0.0000000   0.0161273   0.0161273), wk =   0.1111111
        k(    6) = (   0.0000000   0.0161273   0.0322547), wk =   0.2222222
        k(    7) = (   0.0000000   0.0161273  -0.0483820), wk =   0.1111111
        k(    8) = (   0.0000000   0.0322547   0.0322547), wk =   0.1111111
        k(    9) = (   0.0000000   0.0322547  -0.0483820), wk =   0.1111111
        k(   10) = (   0.0000000  -0.0483820  -0.0483820), wk =   0.0277778
        k(   11) = (   0.0161273   0.0161273   0.0161273), wk =   0.0740741
        k(   12) = (   0.0161273   0.0161273   0.0322547), wk =   0.2222222
        k(   13) = (   0.0161273   0.0161273  -0.0483820), wk =   0.1111111
        k(   14) = (   0.0161273   0.0322547   0.0322547), wk =   0.2222222
        k(   15) = (   0.0161273   0.0322547  -0.0483820), wk =   0.2222222
        k(   16) = (   0.0161273  -0.0483820  -0.0483820), wk =   0.0555556
        k(   17) = (   0.0322547   0.0322547   0.0322547), wk =   0.0740741
        k(   18) = (   0.0322547   0.0322547  -0.0483820), wk =   0.1111111
        k(   19) = (   0.0322547  -0.0483820  -0.0483820), wk =   0.0555556
        k(   20) = (  -0.0483820  -0.0483820  -0.0483820), wk =   0.0092593

     Initial potential from superposition of free atoms

     starting charge   31.63019, renormalised to   32.00000
     Starting wfcs are random

     Self-consistent Calculation

     iteration #  1     ecut=   100.00 Ry     beta= 0.70
     Davidson diagonalization with overlap
     ethr =  1.00E-02,  avg # of iterations = 12.2

     Threshold (ethr) on eigenvalues was too large:
     Diagonalizing with lowered threshold

     Davidson diagonalization with overlap
     ethr =  6.08E-04,  avg # of iterations =  4.0

     total energy              =     -63.05414554 Ry
     estimated scf accuracy    <       0.20447906 Ry

[...]

     End of self-consistent calculation

          k = 0.0000 0.0000 0.0000 ( 18805 PWs)   bands (ev):

    -5.8100  -1.7436  -1.7436  -1.7435  -1.7435  -1.7435  -1.7434   3.2188
     3.2188   3.2188   3.2188   3.2188   3.2188   6.0045   6.0045   6.0045

[...]

          k =-0.0484-0.0484-0.0484 ( 18504 PWs)   bands (ev):

[...]

     highest occupied level (ev):     6.0045

!    total energy              =     -63.06660650 Ry
     estimated scf accuracy    <          8.7E-09 Ry

     The total energy is the sum of the following terms:
     one-electron contribution =      18.34920468 Ry
     hartree contribution      =       4.47826615 Ry
     xc contribution           =     -19.17430086 Ry
     ewald contribution        =     -66.71977647 Ry

     convergence has been achieved in   7 iterations

     Forces acting on atoms (cartesian axes, Ry/au):

     atom    1 type  1   force =     0.00000246   -0.00000246    0.00000246
     atom    2 type  1   force =     0.00000000    0.00000000    0.00000000
     atom    3 type  1   force =     0.00000246    0.00000246   -0.00000246
     atom    4 type  1   force =     0.00000000    0.00000000    0.00000000
     atom    5 type  1   force =    -0.00000246   -0.00000246   -0.00000246
     atom    6 type  1   force =     0.00000000    0.00000000    0.00000000
     atom    7 type  1   force =    -0.00000246    0.00000246    0.00000246
     atom    8 type  1   force =     0.00000000    0.00000000    0.00000000

     Total force =     0.000009     Total SCF correction =     0.000110
     SCF correction compared to forces is large: reduce conv_thr to get better values

     Computing stress (Cartesian axis) and pressure

          total   stress  (Ry/bohr**3)                   (kbar)     P=        4.24
   0.00002881   0.00000000   0.00000000            4.24        0.00        0.00
   0.00000000   0.00002881   0.00000000            0.00        4.24        0.00
   0.00000000   0.00000000   0.00002881            0.00        0.00        4.24

     BFGS Geometry Optimization
     Energy error            =      0.0E+00 Ry
     Gradient error          =      2.5E-06 Ry/Bohr
     Cell gradient error     =      4.2E+00 kbar

     number of scf cycles    =   1
     number of bfgs steps    =   0

     enthalpy           new  =     -63.0666065038 Ry

     new trust radius        =       0.0047862957 bohr
     new conv_thr            =       0.0000000100 Ry

     new unit-cell volume =   1106.10519 a.u.^3 (   163.90788 Ang^3 )
     density =      2.27626 g/cm^3

CELL_PARAMETERS (alat=  1.00000000)
  10.341863705   0.000000000   0.000000000
   0.000000000  10.341863705   0.000000000
   0.000000000   0.000000000  10.341863705

ATOMIC_POSITIONS (crystal)
Si            0.2500002382        0.7499997618        0.2500002382
Si            0.0000000000        0.0000000000        0.5000000000
Si            0.2500002382        0.2500002382        0.7499997618
Si            0.0000000000        0.5000000000        0.0000000000
Si            0.7499997618        0.7499997618        0.7499997618
Si            0.5000000000        0.0000000000        0.0000000000
Si            0.7499997618        0.2500002382        0.2500002382
Si            0.5000000000        0.5000000000        0.5000000000

     Writing output data file ./Si.save/
     NEW-OLD atomic charge density approx. for the potential
     extrapolated charge   32.06826, renormalised to   32.00000

[...]

     Energy error            =      5.3E-05 Ry
     Gradient error          =      8.9E-07 Ry/Bohr
     Cell gradient error     =      2.3E+00 kbar

[...]

     enthalpy           old  =     -63.0666065038 Ry
     enthalpy           new  =     -63.0666596781 Ry

     CASE: enthalpy          _new < enthalpy          _old

[...]

     number of scf cycles    =   3
     number of bfgs steps    =   2

     enthalpy           old  =     -63.0666596781 Ry
     enthalpy           new  =     -63.0666823890 Ry

     CASE: enthalpy          _new < enthalpy          _old

     new trust radius        =       0.0005784009 bohr
     new conv_thr            =            1.0E-10 Ry

     new unit-cell volume =   1109.02366 a.u.^3 (   164.34035 Ang^3 )
     density =      2.27027 g/cm^3

[...]

ATOMIC_POSITIONS (crystal)
Si            0.2500000341        0.7499999659        0.2500000341
Si            0.0000000000        0.0000000000        0.5000000000
Si            0.2500000341        0.2500000341        0.7499999659
Si            0.0000000000        0.5000000000        0.0000000000
Si            0.7499999659        0.7499999659        0.7499999659
Si            0.5000000000        0.0000000000        0.0000000000
Si            0.7499999659        0.2500000341        0.2500000341
Si            0.5000000000        0.5000000000        0.5000000000

     Writing output data file ./Si.save/
     NEW-OLD atomic charge density approx. for the potential
     extrapolated charge   32.00824, renormalised to   32.00000

[...]

     Threshold (ethr) on eigenvalues was too large:
     Diagonalizing with lowered threshold

     Davidson diagonalization with overlap
     ethr =  3.27E-10,  avg # of iterations =  3.5

[...]

     Total force =     0.000000     Total SCF correction =     0.000000

[...]

     Energy error            =      2.2E-07 Ry
     Gradient error          =      1.2E-07 Ry/Bohr
     Cell gradient error     =      5.0E-04 kbar

     bfgs converged in   4 scf cycles and   3 bfgs steps
     (criteria: energy <  1.0E-06 Ry, force <  1.0E-06Ry/Bohr, cell <  5.0E-01kbar)

     End of BFGS Geometry Optimization

     Final enthalpy           =     -63.0666826105 Ry

     File ./Si.bfgs deleted, as requested
Begin final coordinates
     new unit-cell volume =   1109.02366 a.u.^3 (   164.34035 Ang^3 )
     density =      2.27027 g/cm^3

CELL_PARAMETERS (alat=  1.00000000)
  10.350951418   0.000000000   0.000000000
   0.000000000  10.350951418   0.000000000
   0.000000000   0.000000000  10.350951418

ATOMIC_POSITIONS (crystal)
Si            0.2500000341        0.7499999659        0.2500000341
Si            0.0000000000        0.0000000000        0.5000000000
Si            0.2500000341        0.2500000341        0.7499999659
Si            0.0000000000        0.5000000000        0.0000000000
Si            0.7499999659        0.7499999659        0.7499999659
Si            0.5000000000        0.0000000000        0.0000000000
Si            0.7499999659        0.2500000341        0.2500000341
Si            0.5000000000        0.5000000000        0.5000000000
End final coordinates

     Writing output data file ./Si.save/

     Final scf calculation at the relaxed structure.
     The G-vectors are recalculated for the final unit cell
     Results may differ from those at the preceding step.

     Using Slab Decomposition

     bravais-lattice index     =            0
     lattice parameter (alat)  =       1.0000  a.u.
     unit-cell volume          =    1109.0237 (a.u.)^3
     number of atoms/cell      =            8
     number of atomic types    =            1
     number of electrons       =        32.00
     number of Kohn-Sham states=           16
     kinetic-energy cutoff     =     100.0000  Ry
     charge density cutoff     =     400.0000  Ry
     scf convergence threshold =      1.0E-10
     mixing beta               =       0.7000
     number of iterations used =            8  plain     mixing
     press convergence thresh. =      5.0E-01
     Exchange-correlation= PBE
                           (   1   4   3   4   0   0   0)

     celldm(1)=   1.000000  celldm(2)=   0.000000  celldm(3)=   0.000000
     celldm(4)=   0.000000  celldm(5)=   0.000000  celldm(6)=   0.000000

     crystal axes: (cart. coord. in units of alat)
               a(1) = (  10.350951   0.000000   0.000000 )
               a(2) = (   0.000000  10.350951   0.000000 )
               a(3) = (   0.000000   0.000000  10.350951 )

     reciprocal axes: (cart. coord. in units 2 pi/alat)
               b(1) = (  0.096609  0.000000  0.000000 )
               b(2) = (  0.000000  0.096609  0.000000 )
               b(3) = (  0.000000  0.000000  0.096609 )

     PseudoPot. # 1 for Si read from file:
     ./Si.pbe.upf
     MD5 check sum: 7f029a58b69e3aa87b46a36c608bf45e
     Pseudo is Norm-conserving, Zval =  4.0
     Generated using ONCVPSP code by D. R. Hamann
     Using radial grid of  602 points,  4 beta functions with:
                l(1) =   0
                l(2) =   0
                l(3) =   1
                l(4) =   1

     atomic species   valence    mass     pseudopotential
        Si             4.00    28.08550     Si( 1.00)

     24 Sym. Ops. (no inversion) found

   Cartesian axes

     site n.     atom                  positions (alat units)
         1           Si  tau(   1) = (   2.5877382   7.7632132   2.5877382  )
         2           Si  tau(   2) = (   0.0000000   0.0000000   5.1754757  )
         3           Si  tau(   3) = (   2.5877382   2.5877382   7.7632132  )
         4           Si  tau(   4) = (   0.0000000   5.1754757   0.0000000  )
         5           Si  tau(   5) = (   7.7632132   7.7632132   7.7632132  )
         6           Si  tau(   6) = (   5.1754757   0.0000000   0.0000000  )
         7           Si  tau(   7) = (   7.7632132   2.5877382   2.5877382  )
         8           Si  tau(   8) = (   5.1754757   5.1754757   5.1754757  )

     number of k points=    20
                       cart. coord. in units 2pi/alat
        k(    1) = (   0.0000000   0.0000000   0.0000000), wk =   0.0092593
        k(    2) = (   0.0000000   0.0000000   0.0161016), wk =   0.0555556
        k(    3) = (   0.0000000   0.0000000   0.0322032), wk =   0.0555556
        k(    4) = (   0.0000000   0.0000000  -0.0483047), wk =   0.0277778
        k(    5) = (   0.0000000   0.0161016   0.0161016), wk =   0.1111111
        k(    6) = (   0.0000000   0.0161016   0.0322032), wk =   0.2222222
        k(    7) = (   0.0000000   0.0161016  -0.0483047), wk =   0.1111111
        k(    8) = (   0.0000000   0.0322032   0.0322032), wk =   0.1111111
        k(    9) = (   0.0000000   0.0322032  -0.0483047), wk =   0.1111111
        k(   10) = (   0.0000000  -0.0483047  -0.0483047), wk =   0.0277778
        k(   11) = (   0.0161016   0.0161016   0.0161016), wk =   0.0740741
        k(   12) = (   0.0161016   0.0161016   0.0322032), wk =   0.2222222
        k(   13) = (   0.0161016   0.0161016  -0.0483047), wk =   0.1111111
        k(   14) = (   0.0161016   0.0322032   0.0322032), wk =   0.2222222
        k(   15) = (   0.0161016   0.0322032  -0.0483047), wk =   0.2222222
        k(   16) = (   0.0161016  -0.0483047  -0.0483047), wk =   0.0555556
        k(   17) = (   0.0322032   0.0322032   0.0322032), wk =   0.0740741
        k(   18) = (   0.0322032   0.0322032  -0.0483047), wk =   0.1111111
        k(   19) = (   0.0322032  -0.0483047  -0.0483047), wk =   0.0555556
        k(   20) = (  -0.0483047  -0.0483047  -0.0483047), wk =   0.0092593

     Initial potential from superposition of free atoms

     starting charge   31.63019, renormalised to   32.00000
     Starting wfcs are random

     Self-consistent Calculation

[...]

     total energy              =     -63.06668263 Ry
     estimated scf accuracy    <          1.0E-10 Ry

     iteration #  8     ecut=   100.00 Ry     beta= 0.70
     Davidson diagonalization with overlap
     ethr =  3.20E-13,  avg # of iterations =  8.4

     End of self-consistent calculation

[...]

          k = 0.0322-0.0483-0.0483 ( 18720 PWs)   bands (ev):

[...]

          k =-0.0483-0.0483-0.0483 ( 18656 PWs)   bands (ev):

    -3.5617  -3.5617  -3.5617  -3.5617  -0.8905  -0.8905  -0.8905  -0.8905
     4.7874   4.7874   4.7874   4.7874   4.7874   4.7874   4.7874   4.7874

     highest occupied level (ev):     5.9555

!    total energy              =     -63.06668263 Ry
     estimated scf accuracy    <          4.9E-11 Ry

     The total energy is the sum of the following terms:
     one-electron contribution =      18.20593276 Ry
     hartree contribution      =       4.49507307 Ry
     xc contribution           =     -19.15447371 Ry
     ewald contribution        =     -66.61321475 Ry

     convergence has been achieved in   8 iterations

     Forces acting on atoms (cartesian axes, Ry/au):

     atom    1 type  1   force =    -0.00000013    0.00000013   -0.00000013
     atom    2 type  1   force =     0.00000000    0.00000000    0.00000000
     atom    3 type  1   force =    -0.00000013   -0.00000013    0.00000013
     atom    4 type  1   force =     0.00000000    0.00000000    0.00000000
     atom    5 type  1   force =     0.00000013    0.00000013    0.00000013
     atom    6 type  1   force =     0.00000000    0.00000000    0.00000000
     atom    7 type  1   force =     0.00000013   -0.00000013   -0.00000013
     atom    8 type  1   force =     0.00000000    0.00000000    0.00000000

     Total force =     0.000000     Total SCF correction =     0.000002
     SCF correction compared to forces is large: reduce conv_thr to get better values

     Computing stress (Cartesian axis) and pressure

          total   stress  (Ry/bohr**3)                   (kbar)     P=       -0.00
  -0.00000002   0.00000000   0.00000000           -0.00        0.00        0.00
   0.00000000  -0.00000002   0.00000000            0.00       -0.00        0.00
   0.00000000   0.00000000  -0.00000002            0.00        0.00       -0.00

     Writing output data file ./Si.save/

     General routines

     Parallel routines

   This run was terminated on:  13: 9:40  23Jun2022

   JOB DONE.